NAME : dea2382
COMMENT : Bonn VLSI data set with 2382 points
COMMENT : Uni Bonn, Research Institute for Discrete Math
COMMENT : Contributed by Andre Rohe
TYPE : TSP
DIMENSION : 2382
EDGE_WEIGHT_TYPE : EUC_2D
NODE_COORD_SECTION
1 0 106
2 0 12
3 0 141
4 0 17
5 0 176
6 0 211
7 0 230
8 0 314
9 0 356
10 0 357
11 0 36
12 0 363
13 0 377
14 0 378
15 0 398
16 0 399
17 0 419
18 0 420
19 0 430
20 0 433
21 0 440
22 0 441
23 0 442
24 0 461
25 0 462
26 0 468
27 0 470
28 0 482
29 0 483
30 0 503
31 0 507
32 0 524
33 0 538
34 0 545
35 0 573
36 0 608
37 0 625
38 0 626
39 0 643
40 0 671
41 0 678
42 0 71
43 0 711
44 2 101
45 2 103
46 2 105
47 2 107
48 2 109
49 2 110
50 2 130
51 2 134
52 2 136
53 2 139
54 2 141
55 2 143
56 2 145
57 2 148
58 2 151
59 2 155
60 2 156
61 2 158
62 2 160
63 2 161
64 2 163
65 2 167
66 2 180
67 2 186
68 2 187
69 2 188
70 2 189
71 2 192
72 2 194
73 2 196
74 2 198
75 2 200
76 2 202
77 2 204
78 2 206
79 2 207
80 2 222
81 2 224
82 2 226
83 2 227
84 2 229
85 2 230
86 2 231
87 2 233
88 2 234
89 2 239
90 2 240
91 2 244
92 2 245
93 2 246
94 2 268
95 2 269
96 2 271
97 2 273
98 2 275
99 2 278
100 2 280
101 2 285
102 2 286
103 2 290
104 2 291
105 2 295
106 2 296
107 2 301
108 2 330
109 2 331
110 2 341
111 2 342
112 2 344
113 2 356
114 2 357
115 2 358
116 2 359
117 2 36
118 2 38
119 2 383
120 2 384
121 2 388
122 2 389
123 2 393
124 2 394
125 2 399
126 2 408
127 2 409
128 2 413
129 2 414
130 2 417
131 2 418
132 2 419
133 2 42
134 2 424
135 2 426
136 2 429
137 2 431
138 2 433
139 2 435
140 2 438
141 2 441
142 2 443
143 2 445
144 2 446
145 2 448
146 2 450
147 2 451
148 2 453
149 2 454
150 2 455
151 2 457
152 2 459
153 2 461
154 2 462
155 2 464
156 2 466
157 2 47
158 2 478
159 2 480
160 2 482
161 2 487
162 2 489
163 2 492
164 2 494
165 2 504
166 2 506
167 2 509
168 2 511
169 2 514
170 2 529
171 2 530
172 2 531
173 2 535
174 2 536
175 2 540
176 2 541
177 2 544
178 2 545
179 2 546
180 2 551
181 2 553
182 2 556
183 2 557
184 2 561
185 2 562
186 2 565
187 2 566
188 2 567
189 2 572
190 2 574
191 2 577
192 2 578
193 2 582
194 2 583
195 2 586
196 2 587
197 2 588
198 2 593
199 2 595
200 2 60
201 2 618
202 2 619
203 2 62
204 2 629
205 2 630
206 2 632
207 2 64
208 2 644
209 2 645
210 2 646
211 2 647
212 2 66
213 2 670
214 2 673
215 2 674
216 2 678
217 2 679
218 2 68
219 2 682
220 2 683
221 2 684
222 2 689
223 2 691
224 2 693
225 2 694
226 2 698
227 2 70
228 2 704
229 2 706
230 2 71
231 2 72
232 2 77
233 2 90
234 2 99
235 3 288
236 3 345
237 3 386
238 3 411
239 3 538
240 3 559
241 3 580
242 3 633
243 3 676
244 5 100
245 5 104
246 5 108
247 5 11
248 5 116
249 5 124
250 5 130
251 5 132
252 5 135
253 5 140
254 5 144
255 5 15
256 5 154
257 5 160
258 5 162
259 5 164
260 5 178
261 5 181
262 5 184
263 5 193
264 5 197
265 5 20
266 5 201
267 5 206
268 5 208
269 5 212
270 5 218
271 5 223
272 5 228
273 5 250
274 5 254
275 5 259
276 5 26
277 5 267
278 5 273
279 5 275
280 5 278
281 5 283
282 5 30
283 5 42
284 5 429
285 5 432
286 5 435
287 5 439
288 5 442
289 5 452
290 5 456
291 5 458
292 5 466
293 5 468
294 5 473
295 5 479
296 5 492
297 5 494
298 5 499
299 5 505
300 5 510
301 5 514
302 5 528
303 5 61
304 5 65
305 5 671
306 5 69
307 5 699
308 5 7
309 8 112
310 8 118
311 8 12
312 8 126
313 8 224
314 8 448
315 8 453
316 8 459
317 8 462
318 8 469
319 8 475
320 8 480
321 9 112
322 9 118
323 9 126
324 9 133
325 9 138
326 9 151
327 9 158
328 9 191
329 9 204
330 9 209
331 9 224
332 9 23
333 9 26
334 9 271
335 9 280
336 9 30
337 9 375
338 9 433
339 9 440
340 9 448
341 9 453
342 9 459
343 9 462
344 9 469
345 9 475
346 9 480
347 9 496
348 9 503
349 9 508
350 9 59
351 9 663
352 9 98
353 10 107
354 10 112
355 10 118
356 10 126
357 10 129
358 10 133
359 10 138
360 10 151
361 10 158
362 10 161
363 10 163
364 10 166
365 10 180
366 10 191
367 10 204
368 10 207
369 10 209
370 10 222
371 10 225
372 10 227
373 10 24
374 10 271
375 10 274
376 10 277
377 10 28
378 10 280
379 10 303
380 10 401
381 10 41
382 10 428
383 10 431
384 10 433
385 10 438
386 10 44
387 10 440
388 10 449
389 10 451
390 10 453
391 10 457
392 10 460
393 10 463
394 10 465
395 10 469
396 10 475
397 10 478
398 10 481
399 10 491
400 10 496
401 10 503
402 10 508
403 10 59
404 10 670
405 10 68
406 10 698
407 10 74
408 10 89
409 10 98
410 11 107
411 11 112
412 11 119
413 11 127
414 11 129
415 11 133
416 11 138
417 11 151
418 11 158
419 11 161
420 11 163
421 11 166
422 11 180
423 11 182
424 11 191
425 11 204
426 11 207
427 11 209
428 11 222
429 11 224
430 11 227
431 11 248
432 11 271
433 11 274
434 11 277
435 11 280
436 11 309
437 11 32
438 11 375
439 11 41
440 11 428
441 11 431
442 11 433
443 11 438
444 11 44
445 11 440
446 11 448
447 11 451
448 11 453
449 11 457
450 11 459
451 11 462
452 11 465
453 11 469
454 11 476
455 11 478
456 11 480
457 11 483
458 11 491
459 11 496
460 11 5
461 11 503
462 11 508
463 11 515
464 11 526
465 11 59
466 11 597
467 11 663
468 11 670
469 11 68
470 11 698
471 11 700
472 11 74
473 11 89
474 11 98
475 12 112
476 12 151
477 12 175
478 12 209
479 12 251
480 12 255
481 12 280
482 12 469
483 12 496
484 12 8
485 15 108
486 15 11
487 15 130
488 15 132
489 15 15
490 15 154
491 15 162
492 15 164
493 15 178
494 15 181
495 15 20
496 15 208
497 15 212
498 15 218
499 15 223
500 15 226
501 15 228
502 15 25
503 15 254
504 15 275
505 15 278
506 15 283
507 15 29
508 15 42
509 15 429
510 15 432
511 15 439
512 15 450
513 15 452
514 15 456
515 15 458
516 15 461
517 15 464
518 15 466
519 15 468
520 15 479
521 15 482
522 15 492
523 15 494
524 15 499
525 15 671
526 15 69
527 15 699
528 17 110
529 17 148
530 17 156
531 17 187
532 17 188
533 17 189
534 17 230
535 17 234
536 17 239
537 17 245
538 17 269
539 17 285
540 17 291
541 17 301
542 17 330
543 17 356
544 17 358
545 17 383
546 17 389
547 17 399
548 17 408
549 17 414
550 17 417
551 17 424
552 17 426
553 17 446
554 17 530
555 17 531
556 17 535
557 17 541
558 17 544
559 17 551
560 17 553
561 17 556
562 17 562
563 17 565
564 17 572
565 17 574
566 17 577
567 17 583
568 17 586
569 17 593
570 17 595
571 17 618
572 17 644
573 17 646
574 17 673
575 17 679
576 17 682
577 17 689
578 17 691
579 17 694
580 17 71
581 18 113
582 18 114
583 18 116
584 18 117
585 18 121
586 18 122
587 18 124
588 18 126
589 18 152
590 18 153
591 18 210
592 18 212
593 18 213
594 18 214
595 18 216
596 18 218
597 18 219
598 18 220
599 18 231
600 18 246
601 18 281
602 18 282
603 18 289
604 18 295
605 18 329
606 18 340
607 18 346
608 18 359
609 18 387
610 18 393
611 18 412
612 18 418
613 18 470
614 18 471
615 18 473
616 18 474
617 18 475
618 18 497
619 18 499
620 18 500
621 18 501
622 18 539
623 18 545
624 18 560
625 18 566
626 18 581
627 18 587
628 18 617
629 18 628
630 18 634
631 18 647
632 18 677
633 18 683
634 18 72
635 25 100
636 25 103
637 25 104
638 25 108
639 25 109
640 25 112
641 25 113
642 25 114
643 25 119
644 25 121
645 25 123
646 25 124
647 25 125
648 25 127
649 25 132
650 25 137
651 25 138
652 25 142
653 25 143
654 25 146
655 25 147
656 25 148
657 25 153
658 25 155
659 25 158
660 25 159
661 25 16
662 25 163
663 25 164
664 25 167
665 25 168
666 25 169
667 25 17
668 25 174
669 25 176
670 25 18
671 25 188
672 25 189
673 25 190
674 25 20
675 25 22
676 25 228
677 25 246
678 25 249
679 25 255
680 25 26
681 25 268
682 25 270
683 25 29
684 25 306
685 25 318
686 25 322
687 25 327
688 25 328
689 25 330
690 25 332
691 25 334
692 25 336
693 25 339
694 25 342
695 25 361
696 25 367
697 25 369
698 25 371
699 25 373
700 25 376
701 25 408
702 25 413
703 25 417
704 25 418
705 25 431
706 25 432
707 25 434
708 25 44
709 25 442
710 25 445
711 25 446
712 25 450
713 25 451
714 25 454
715 25 455
716 25 456
717 25 46
718 25 461
719 25 463
720 25 466
721 25 467
722 25 471
723 25 472
724 25 475
725 25 476
726 25 477
727 25 482
728 25 484
729 25 487
730 25 488
731 25 492
732 25 493
733 25 496
734 25 497
735 25 498
736 25 50
737 25 503
738 25 505
739 25 508
740 25 509
741 25 51
742 25 513
743 25 514
744 25 517
745 25 518
746 25 519
747 25 524
748 25 545
749 25 547
750 25 548
751 25 55
752 25 56
753 25 561
754 25 563
755 25 570
756 25 584
757 25 587
758 25 588
759 25 59
760 25 590
761 25 592
762 25 593
763 25 595
764 25 596
765 25 60
766 25 600
767 25 601
768 25 603
769 25 607
770 25 608
771 25 61
772 25 611
773 25 613
774 25 621
775 25 624
776 25 625
777 25 629
778 25 630
779 25 633
780 25 634
781 25 635
782 25 640
783 25 649
784 25 651
785 25 655
786 25 656
787 25 657
788 25 659
789 25 66
790 25 661
791 25 662
792 25 664
793 25 665
794 25 667
795 25 669
796 25 670
797 25 672
798 25 674
799 25 676
800 25 685
801 25 687
802 25 698
803 25 704
804 25 75
805 25 76
806 25 80
807 25 81
808 25 84
809 25 85
810 25 86
811 25 91
812 25 93
813 25 95
814 25 97
815 25 98
816 25 99
817 26 106
818 26 140
819 26 161
820 26 448
821 26 469
822 26 490
823 26 511
824 26 53
825 26 627
826 26 78
827 28 12
828 28 130
829 28 135
830 28 181
831 28 187
832 28 194
833 28 21
834 28 232
835 28 234
836 28 238
837 28 244
838 28 246
839 28 249
840 28 25
841 28 252
842 28 259
843 28 262
844 28 266
845 28 268
846 28 27
847 28 270
848 28 272
849 28 274
850 28 276
851 28 281
852 28 285
853 28 291
854 28 299
855 28 30
856 28 303
857 28 309
858 28 312
859 28 325
860 28 332
861 28 335
862 28 339
863 28 34
864 28 341
865 28 343
866 28 347
867 28 361
868 28 368
869 28 372
870 28 376
871 28 379
872 28 38
873 28 385
874 28 390
875 28 423
876 28 429
877 28 435
878 28 531
879 28 533
880 28 537
881 28 541
882 28 543
883 28 547
884 28 549
885 28 553
886 28 559
887 28 562
888 28 576
889 28 581
890 28 592
891 28 595
892 28 599
893 28 606
894 28 612
895 28 618
896 28 622
897 28 650
898 28 661
899 28 664
900 28 666
901 28 669
902 28 672
903 28 675
904 28 681
905 28 686
906 28 691
907 28 695
908 28 698
909 28 701
910 28 708
911 28 8
912 31 131
913 31 357
914 31 363
915 31 382
916 31 409
917 31 443
918 31 95
919 32 12
920 32 127
921 32 131
922 32 22
923 32 278
924 32 281
925 32 285
926 32 300
927 32 31
928 32 322
929 32 330
930 32 333
931 32 34
932 32 357
933 32 363
934 32 366
935 32 38
936 32 5
937 32 545
938 32 560
939 32 573
940 32 590
941 32 593
942 32 596
943 32 603
944 32 610
945 32 648
946 32 659
947 32 662
948 32 667
949 32 670
950 32 673
951 32 684
952 32 8
953 32 95
954 33 10
955 33 127
956 33 131
957 33 20
958 33 22
959 33 245
960 33 248
961 33 26
962 33 267
963 33 279
964 33 283
965 33 29
966 33 300
967 33 32
968 33 322
969 33 330
970 33 333
971 33 338
972 33 342
973 33 357
974 33 36
975 33 363
976 33 366
977 33 434
978 33 545
979 33 548
980 33 560
981 33 573
982 33 590
983 33 593
984 33 596
985 33 6
986 33 603
987 33 610
988 33 621
989 33 642
990 33 648
991 33 659
992 33 662
993 33 665
994 33 667
995 33 670
996 33 673
997 33 68
998 33 684
999 33 697
1000 33 96
1001 34 127
1002 34 131
1003 34 192
1004 34 20
1005 34 22
1006 34 226
1007 34 231
1008 34 236
1009 34 245
1010 34 248
1011 34 251
1012 34 257
1013 34 26
1014 34 260
1015 34 267
1016 34 273
1017 34 29
1018 34 300
1019 34 310
1020 34 317
1021 34 322
1022 34 330
1023 34 333
1024 34 338
1025 34 342
1026 34 352
1027 34 357
1028 34 364
1029 34 366
1030 34 377
1031 34 397
1032 34 40
1033 34 412
1034 34 434
1035 34 526
1036 34 530
1037 34 535
1038 34 540
1039 34 545
1040 34 548
1041 34 560
1042 34 573
1043 34 580
1044 34 590
1045 34 593
1046 34 596
1047 34 603
1048 34 610
1049 34 621
1050 34 648
1051 34 659
1052 34 662
1053 34 665
1054 34 667
1055 34 670
1056 34 673
1057 34 684
1058 34 689
1059 34 697
1060 34 700
1061 34 706
1062 34 95
1063 35 127
1064 35 131
1065 35 178
1066 35 22
1067 35 241
1068 35 287
1069 35 300
1070 35 322
1071 35 344
1072 35 357
1073 35 409
1074 35 420
1075 35 443
1076 35 550
1077 35 573
1078 35 596
1079 35 603
1080 35 615
1081 35 678
1082 38 11
1083 38 130
1084 38 181
1085 38 187
1086 38 21
1087 38 232
1088 38 234
1089 38 244
1090 38 246
1091 38 249
1092 38 25
1093 38 252
1094 38 268
1095 38 27
1096 38 270
1097 38 272
1098 38 274
1099 38 276
1100 38 280
1101 38 284
1102 38 30
1103 38 303
1104 38 309
1105 38 325
1106 38 33
1107 38 339
1108 38 341
1109 38 343
1110 38 347
1111 38 37
1112 38 385
1113 38 390
1114 38 409
1115 38 423
1116 38 429
1117 38 435
1118 38 443
1119 38 531
1120 38 533
1121 38 541
1122 38 543
1123 38 549
1124 38 553
1125 38 559
1126 38 576
1127 38 581
1128 38 599
1129 38 606
1130 38 618
1131 38 622
1132 38 666
1133 38 681
1134 38 698
1135 38 7
1136 38 701
1137 38 97
1138 40 100
1139 40 103
1140 40 109
1141 40 112
1142 40 119
1143 40 121
1144 40 124
1145 40 125
1146 40 137
1147 40 143
1148 40 146
1149 40 153
1150 40 155
1151 40 158
1152 40 164
1153 40 167
1154 40 17
1155 40 174
1156 40 176
1157 40 18
1158 40 189
1159 40 190
1160 40 228
1161 40 255
1162 40 327
1163 40 417
1164 40 431
1165 40 445
1166 40 451
1167 40 454
1168 40 461
1169 40 463
1170 40 466
1171 40 472
1172 40 475
1173 40 482
1174 40 484
1175 40 487
1176 40 493
1177 40 496
1178 40 50
1179 40 503
1180 40 505
1181 40 508
1182 40 514
1183 40 517
1184 40 524
1185 40 56
1186 40 584
1187 40 587
1188 40 588
1189 40 59
1190 40 601
1191 40 608
1192 40 624
1193 40 630
1194 40 633
1195 40 640
1196 40 656
1197 40 657
1198 40 66
1199 40 704
1200 40 75
1201 40 81
1202 40 84
1203 40 91
1204 40 93
1205 40 99
1206 41 107
1207 41 113
1208 41 128
1209 41 129
1210 41 133
1211 41 134
1212 41 141
1213 41 147
1214 41 162
1215 41 168
1216 41 23
1217 41 24
1218 41 301
1219 41 302
1220 41 304
1221 41 305
1222 41 307
1223 41 308
1224 41 318
1225 41 323
1226 41 324
1227 41 358
1228 41 359
1229 41 361
1230 41 363
1231 41 413
1232 41 449
1233 41 455
1234 41 470
1235 41 476
1236 41 491
1237 41 497
1238 41 512
1239 41 518
1240 41 54
1241 41 570
1242 41 574
1243 41 575
1244 41 577
1245 41 578
1246 41 597
1247 41 598
1248 41 60
1249 41 604
1250 41 605
1251 41 628
1252 41 634
1253 41 79
1254 41 85
1255 48 102
1256 48 104
1257 48 107
1258 48 108
1259 48 11
1260 48 112
1261 48 113
1262 48 116
1263 48 117
1264 48 118
1265 48 123
1266 48 125
1267 48 13
1268 48 150
1269 48 151
1270 48 16
1271 48 161
1272 48 162
1273 48 164
1274 48 17
1275 48 176
1276 48 177
1277 48 178
1278 48 179
1279 48 19
1280 48 20
1281 48 203
1282 48 204
1283 48 208
1284 48 209
1285 48 21
1286 48 212
1287 48 213
1288 48 214
1289 48 219
1290 48 221
1291 48 224
1292 48 227
1293 48 229
1294 48 23
1295 48 231
1296 48 233
1297 48 234
1298 48 238
1299 48 239
1300 48 24
1301 48 243
1302 48 244
1303 48 249
1304 48 25
1305 48 258
1306 48 259
1307 48 263
1308 48 264
1309 48 268
1310 48 269
1311 48 27
1312 48 274
1313 48 28
1314 48 29
1315 48 299
1316 48 313
1317 48 314
1318 48 318
1319 48 319
1320 48 32
1321 48 323
1322 48 324
1323 48 329
1324 48 338
1325 48 339
1326 48 34
1327 48 343
1328 48 344
1329 48 348
1330 48 349
1331 48 354
1332 48 36
1333 48 367
1334 48 369
1335 48 371
1336 48 374
1337 48 376
1338 48 377
1339 48 38
1340 48 390
1341 48 391
1342 48 392
1343 48 40
1344 48 404
1345 48 41
1346 48 410
1347 48 411
1348 48 413
1349 48 416
1350 48 417
1351 48 418
1352 48 419
1353 48 42
1354 48 422
1355 48 433
1356 48 435
1357 48 44
1358 48 446
1359 48 449
1360 48 45
1361 48 450
1362 48 454
1363 48 455
1364 48 458
1365 48 459
1366 48 46
1367 48 460
1368 48 465
1369 48 467
1370 48 502
1371 48 503
1372 48 513
1373 48 514
1374 48 516
1375 48 528
1376 48 529
1377 48 530
1378 48 531
1379 48 555
1380 48 556
1381 48 560
1382 48 561
1383 48 564
1384 48 565
1385 48 566
1386 48 571
1387 48 573
1388 48 576
1389 48 577
1390 48 58
1391 48 581
1392 48 582
1393 48 585
1394 48 586
1395 48 587
1396 48 59
1397 48 592
1398 48 594
1399 48 597
1400 48 598
1401 48 60
1402 48 602
1403 48 603
1404 48 606
1405 48 607
1406 48 608
1407 48 613
1408 48 615
1409 48 617
1410 48 619
1411 48 62
1412 48 621
1413 48 622
1414 48 624
1415 48 626
1416 48 627
1417 48 63
1418 48 631
1419 48 632
1420 48 635
1421 48 636
1422 48 637
1423 48 64
1424 48 642
1425 48 644
1426 48 647
1427 48 648
1428 48 652
1429 48 653
1430 48 656
1431 48 657
1432 48 658
1433 48 66
1434 48 663
1435 48 665
1436 48 668
1437 48 669
1438 48 67
1439 48 673
1440 48 674
1441 48 677
1442 48 678
1443 48 679
1444 48 68
1445 48 684
1446 48 692
1447 48 694
1448 48 695
1449 48 696
1450 48 70
1451 48 706
1452 48 708
1453 48 71
1454 48 72
1455 48 74
1456 48 75
1457 48 76
1458 48 78
1459 48 80
1460 48 81
1461 48 82
1462 48 83
1463 48 86
1464 48 87
1465 48 91
1466 48 92
1467 48 95
1468 48 96
1469 48 97
1470 49 110
1471 49 165
1472 49 206
1473 49 236
1474 49 261
1475 49 316
1476 49 341
1477 49 452
1478 49 517
1479 49 558
1480 49 579
1481 49 600
1482 49 629
1483 49 650
1484 49 671
1485 49 89
1486 51 12
1487 51 128
1488 51 16
1489 51 18
1490 51 224
1491 51 227
1492 51 285
1493 51 290
1494 51 304
1495 51 309
1496 51 33
1497 51 363
1498 51 365
1499 51 369
1500 51 37
1501 51 371
1502 51 373
1503 51 377
1504 51 380
1505 51 382
1506 51 385
1507 51 387
1508 51 396
1509 51 400
1510 51 414
1511 51 423
1512 51 427
1513 51 431
1514 51 435
1515 51 439
1516 51 443
1517 51 446
1518 51 470
1519 51 472
1520 51 474
1521 51 477
1522 51 479
1523 51 51
1524 51 57
1525 51 618
1526 51 621
1527 51 624
1528 51 693
1529 51 701
1530 51 8
1531 54 229
1532 54 282
1533 54 300
1534 54 301
1535 54 374
1536 54 401
1537 54 714
1538 54 78
1539 55 10
1540 55 195
1541 55 229
1542 55 31
1543 55 367
1544 55 374
1545 55 377
1546 55 424
1547 55 427
1548 55 431
1549 55 433
1550 55 436
1551 55 439
1552 55 443
1553 55 547
1554 55 619
1555 55 622
1556 55 714
1557 55 78
1558 56 10
1559 56 17
1560 56 223
1561 56 226
1562 56 230
1563 56 251
1564 56 276
1565 56 31
1566 56 331
1567 56 356
1568 56 367
1569 56 370
1570 56 375
1571 56 413
1572 56 422
1573 56 425
1574 56 429
1575 56 433
1576 56 437
1577 56 441
1578 56 445
1579 56 617
1580 56 619
1581 56 622
1582 56 686
1583 56 692
1584 56 714
1585 56 79
1586 57 10
1587 57 127
1588 57 129
1589 57 17
1590 57 195
1591 57 223
1592 57 226
1593 57 229
1594 57 31
1595 57 362
1596 57 367
1597 57 370
1598 57 374
1599 57 379
1600 57 384
1601 57 394
1602 57 413
1603 57 422
1604 57 433
1605 57 445
1606 57 469
1607 57 471
1608 57 476
1609 57 481
1610 57 547
1611 57 617
1612 57 619
1613 57 622
1614 57 692
1615 57 702
1616 57 714
1617 57 78
1618 58 300
1619 58 397
1620 58 48
1621 58 5
1622 58 698
1623 58 714
1624 59 714
1625 60 714
1626 61 128
1627 61 18
1628 61 224
1629 61 227
1630 61 231
1631 61 285
1632 61 290
1633 61 300
1634 61 304
1635 61 309
1636 61 363
1637 61 365
1638 61 371
1639 61 373
1640 61 376
1641 61 380
1642 61 382
1643 61 385
1644 61 387
1645 61 400
1646 61 414
1647 61 423
1648 61 426
1649 61 430
1650 61 438
1651 61 442
1652 61 446
1653 61 470
1654 61 472
1655 61 474
1656 61 477
1657 61 479
1658 61 51
1659 61 57
1660 61 618
1661 61 693
1662 61 701
1663 61 8
1664 61 80
1665 63 102
1666 63 104
1667 63 107
1668 63 113
1669 63 116
1670 63 123
1671 63 125
1672 63 150
1673 63 176
1674 63 178
1675 63 20
1676 63 203
1677 63 209
1678 63 21
1679 63 212
1680 63 219
1681 63 221
1682 63 233
1683 63 239
1684 63 24
1685 63 249
1686 63 25
1687 63 258
1688 63 264
1689 63 274
1690 63 28
1691 63 29
1692 63 313
1693 63 319
1694 63 329
1695 63 338
1696 63 344
1697 63 354
1698 63 391
1699 63 41
1700 63 410
1701 63 416
1702 63 417
1703 63 418
1704 63 419
1705 63 42
1706 63 449
1707 63 45
1708 63 455
1709 63 458
1710 63 46
1711 63 465
1712 63 467
1713 63 502
1714 63 528
1715 63 530
1716 63 555
1717 63 561
1718 63 564
1719 63 571
1720 63 573
1721 63 576
1722 63 582
1723 63 585
1724 63 59
1725 63 592
1726 63 594
1727 63 597
1728 63 60
1729 63 603
1730 63 606
1731 63 613
1732 63 615
1733 63 626
1734 63 63
1735 63 632
1736 63 635
1737 63 64
1738 63 642
1739 63 644
1740 63 647
1741 63 653
1742 63 656
1743 63 663
1744 63 665
1745 63 668
1746 63 67
1747 63 674
1748 63 677
1749 63 68
1750 63 684
1751 63 695
1752 63 696
1753 63 71
1754 63 72
1755 63 75
1756 63 76
1757 63 82
1758 63 83
1759 63 86
1760 63 92
1761 63 95
1762 64 111
1763 64 117
1764 64 149
1765 64 160
1766 64 166
1767 64 179
1768 64 207
1769 64 213
1770 64 237
1771 64 243
1772 64 262
1773 64 268
1774 64 317
1775 64 323
1776 64 342
1777 64 348
1778 64 392
1779 64 453
1780 64 459
1781 64 501
1782 64 512
1783 64 518
1784 64 531
1785 64 559
1786 64 565
1787 64 580
1788 64 586
1789 64 601
1790 64 607
1791 64 630
1792 64 636
1793 64 651
1794 64 657
1795 64 672
1796 64 678
1797 64 90
1798 64 96
1799 71 10
1800 71 108
1801 71 109
1802 71 111
1803 71 123
1804 71 124
1805 71 125
1806 71 126
1807 71 14
1808 71 15
1809 71 150
1810 71 151
1811 71 155
1812 71 156
1813 71 159
1814 71 160
1815 71 161
1816 71 166
1817 71 168
1818 71 172
1819 71 174
1820 71 175
1821 71 176
1822 71 178
1823 71 180
1824 71 181
1825 71 183
1826 71 184
1827 71 185
1828 71 19
1829 71 20
1830 71 217
1831 71 218
1832 71 219
1833 71 23
1834 71 24
1835 71 243
1836 71 25
1837 71 276
1838 71 30
1839 71 300
1840 71 306
1841 71 32
1842 71 334
1843 71 341
1844 71 346
1845 71 348
1846 71 35
1847 71 36
1848 71 364
1849 71 379
1850 71 388
1851 71 398
1852 71 40
1853 71 41
1854 71 417
1855 71 419
1856 71 420
1857 71 421
1858 71 422
1859 71 424
1860 71 427
1861 71 430
1862 71 432
1863 71 434
1864 71 44
1865 71 447
1866 71 45
1867 71 46
1868 71 493
1869 71 495
1870 71 497
1871 71 499
1872 71 502
1873 71 509
1874 71 51
1875 71 510
1876 71 514
1877 71 515
1878 71 518
1879 71 519
1880 71 520
1881 71 525
1882 71 527
1883 71 53
1884 71 56
1885 71 568
1886 71 569
1887 71 57
1888 71 570
1889 71 574
1890 71 576
1891 71 578
1892 71 580
1893 71 582
1894 71 584
1895 71 586
1896 71 588
1897 71 591
1898 71 593
1899 71 595
1900 71 597
1901 71 599
1902 71 602
1903 71 604
1904 71 606
1905 71 608
1906 71 61
1907 71 610
1908 71 614
1909 71 617
1910 71 619
1911 71 62
1912 71 624
1913 71 626
1914 71 629
1915 71 630
1916 71 631
1917 71 636
1918 71 637
1919 71 639
1920 71 642
1921 71 644
1922 71 647
1923 71 649
1924 71 65
1925 71 651
1926 71 653
1927 71 655
1928 71 657
1929 71 659
1930 71 66
1931 71 661
1932 71 664
1933 71 666
1934 71 668
1935 71 67
1936 71 671
1937 71 673
1938 71 675
1939 71 676
1940 71 680
1941 71 682
1942 71 684
1943 71 685
1944 71 687
1945 71 688
1946 71 706
1947 71 708
1948 71 72
1949 71 74
1950 71 97
1951 71 98
1952 72 112
1953 72 153
1954 72 17
1955 72 38
1956 72 512
1957 72 59
1958 72 714
1959 74 11
1960 74 171
1961 74 173
1962 74 182
1963 74 188
1964 74 190
1965 74 193
1966 74 195
1967 74 199
1968 74 204
1969 74 210
1970 74 216
1971 74 222
1972 74 224
1973 74 280
1974 74 282
1975 74 285
1976 74 309
1977 74 313
1978 74 318
1979 74 334
1980 74 336
1981 74 338
1982 74 346
1983 74 348
1984 74 351
1985 74 353
1986 74 358
1987 74 362
1988 74 365
1989 74 369
1990 74 373
1991 74 384
1992 74 394
1993 74 398
1994 74 403
1995 74 409
1996 74 412
1997 74 416
1998 74 419
1999 74 425
2000 74 427
2001 74 435
2002 74 439
2003 74 445
2004 74 447
2005 74 451
2006 74 456
2007 74 464
2008 74 468
2009 74 473
2010 74 478
2011 74 484
2012 74 488
2013 74 491
2014 74 494
2015 74 498
2016 74 502
2017 74 504
2018 74 506
2019 74 534
2020 74 542
2021 74 545
2022 74 551
2023 74 556
2024 74 562
2025 74 566
2026 74 575
2027 74 579
2028 74 583
2029 74 587
2030 74 591
2031 74 593
2032 74 595
2033 74 597
2034 74 599
2035 74 603
2036 74 607
2037 74 613
2038 74 615
2039 74 617
2040 74 619
2041 74 621
2042 74 625
2043 74 629
2044 74 635
2045 74 640
2046 74 648
2047 74 652
2048 74 656
2049 74 660
2050 74 664
2051 74 681
2052 74 689
2053 74 692
2054 74 696
2055 74 7
2056 74 700
2057 77 178
2058 77 244
2059 77 297
2060 77 310
2061 77 376
2062 77 385
2063 77 465
2064 77 548
2065 77 682
2066 77 685
2067 78 142
2068 78 178
2069 78 355
2070 78 358
2071 78 362
2072 78 400
2073 78 417
2074 78 481
2075 78 484
2076 78 488
2077 78 492
2078 78 559
2079 78 562
2080 78 566
2081 78 573
2082 78 601
2083 78 610
2084 78 623
2085 78 646
2086 78 682
2087 78 685
2088 78 693
2089 78 696
2090 78 700
2091 79 10
2092 79 172
2093 79 179
2094 79 181
2095 79 333
2096 79 345
2097 79 356
2098 79 360
2099 79 364
2100 79 397
2101 79 400
2102 79 417
2103 79 424
2104 79 426
2105 79 434
2106 79 446
2107 79 482
2108 79 486
2109 79 492
2110 79 560
2111 79 564
2112 79 573
2113 79 592
2114 79 601
2115 79 610
2116 79 614
2117 79 616
2118 79 623
2119 79 639
2120 79 646
2121 79 680
2122 79 683
2123 79 686
2124 79 688
2125 79 694
2126 79 698
2127 80 10
2128 80 142
2129 80 170
2130 80 172
2131 80 178
2132 80 181
2133 80 187
2134 80 192
2135 80 197
2136 80 202
2137 80 221
2138 80 226
2139 80 274
2140 80 279
2141 80 284
2142 80 286
2143 80 308
2144 80 321
2145 80 333
2146 80 337
2147 80 345
2148 80 350
2149 80 364
2150 80 371
2151 80 383
2152 80 392
2153 80 397
2154 80 400
2155 80 407
2156 80 410
2157 80 417
2158 80 424
2159 80 426
2160 80 434
2161 80 446
2162 80 450
2163 80 476
2164 80 490
2165 80 492
2166 80 5
2167 80 503
2168 80 543
2169 80 573
2170 80 592
2171 80 601
2172 80 610
2173 80 614
2174 80 616
2175 80 623
2176 80 633
2177 80 639
2178 80 646
2179 80 680
2180 80 682
2181 80 685
2182 80 688
2183 80 690
2184 80 702
2185 80 76
2186 81 207
2187 81 244
2188 81 366
2189 81 400
2190 81 436
2191 81 452
2192 81 530
2193 81 610
2194 84 11
2195 84 171
2196 84 173
2197 84 180
2198 84 182
2199 84 188
2200 84 190
2201 84 193
2202 84 195
2203 84 210
2204 84 216
2205 84 222
2206 84 224
2207 84 244
2208 84 280
2209 84 282
2210 84 285
2211 84 309
2212 84 313
2213 84 318
2214 84 334
2215 84 336
2216 84 338
2217 84 346
2218 84 348
2219 84 351
2220 84 353
2221 84 357
2222 84 361
2223 84 365
2224 84 369
2225 84 384
2226 84 398
2227 84 403
2228 84 425
2229 84 427
2230 84 435
2231 84 439
2232 84 445
2233 84 447
2234 84 451
2235 84 468
2236 84 473
2237 84 483
2238 84 487
2239 84 491
2240 84 504
2241 84 506
2242 84 551
2243 84 556
2244 84 561
2245 84 565
2246 84 593
2247 84 595
2248 84 597
2249 84 599
2250 84 613
2251 84 615
2252 84 617
2253 84 619
2254 84 621
2255 84 640
2256 84 681
2257 84 684
2258 84 687
2259 84 689
2260 84 695
2261 84 699
2262 86 123
2263 86 125
2264 86 14
2265 86 150
2266 86 156
2267 86 159
2268 86 166
2269 86 168
2270 86 175
2271 86 176
2272 86 184
2273 86 185
2274 86 20
2275 86 218
2276 86 219
2277 86 23
2278 86 276
2279 86 30
2280 86 306
2281 86 32
2282 86 341
2283 86 35
2284 86 41
2285 86 421
2286 86 422
2287 86 430
2288 86 432
2289 86 44
2290 86 509
2291 86 51
2292 86 515
2293 86 518
2294 86 525
2295 86 527
2296 86 53
2297 86 56
2298 86 569
2299 86 570
2300 86 62
2301 86 631
2302 86 637
2303 86 642
2304 86 644
2305 86 65
2306 86 666
2307 86 668
2308 86 671
2309 86 673
2310 86 676
2311 86 72
2312 86 74
2313 86 97
2314 87 107
2315 87 113
2316 87 126
2317 87 154
2318 87 160
2319 87 18
2320 87 24
2321 87 39
2322 87 401
2323 87 403
2324 87 404
2325 87 405
2326 87 45
2327 87 513
2328 87 519
2329 87 60
2330 87 611
2331 87 612
2332 87 66
2333 87 96
2334 93 714
2335 99 714
2336 102 714
2337 108 714
2338 112 106
2339 112 127
2340 112 148
2341 112 169
2342 112 190
2343 112 211
2344 112 22
2345 112 230
2346 112 251
2347 112 272
2348 112 293
2349 112 314
2350 112 335
2351 112 356
2352 112 357
2353 112 377
2354 112 378
2355 112 398
2356 112 399
2357 112 419
2358 112 420
2359 112 43
2360 112 440
2361 112 441
2362 112 461
2363 112 462
2364 112 482
2365 112 483
2366 112 503
2367 112 504
2368 112 524
2369 112 545
2370 112 546
2371 112 566
2372 112 567
2373 112 587
2374 112 588
2375 112 608
2376 112 609
2377 112 629
2378 112 64
2379 112 650
2380 112 671
2381 112 692
2382 112 85
EOF
